n = 10;
m = 10;
p = [857, 464, 775, 803, 847, 680, 480, 339, 914, 238];

c =
[| 10, 8, 6, 2, 5, 9, 3, 1, 6, 1, 
 | 5, 3, 1, 3, 4, 3, 6, 10, 6, 9, 
 | 1, 7, 1, 10, 3, 7, 3, 2, 2, 10, 
 | 2, 1, 6, 9, 4, 4, 2, 6, 1, 9, 
 | 5, 8, 6, 9, 8, 9, 4, 6, 5, 4, 
 | 4, 5, 2, 2, 2, 5, 5, 1, 8, 1, 
 | 8, 2, 9, 10, 3, 8, 8, 4, 3, 10, 
 | 1, 8, 9, 6, 3, 5, 3, 6, 7, 1, 
 | 2, 3, 1, 10, 8, 7, 2, 4, 2, 7, 
 | 8, 5, 10, 8, 5, 3, 2, 2, 5, 6
 |];

h =
[| 14, 4, 9, 1, 10, 15, 22, 28, 6, 18, 
 | 28, 25, 3, 17, 26, 16, 5, 15, 9, 7, 
 | 14, 2, 21, 16, 19, 7, 1, 27, 7, 27, 
 | 9, 8, 26, 10, 10, 25, 11, 24, 23, 6, 
 | 23, 23, 11, 6, 12, 3, 12, 16, 21, 5, 
 | 1, 5, 5, 23, 1, 25, 19, 17, 3, 10, 
 | 15, 14, 1, 6, 18, 15, 9, 11, 18, 25, 
 | 3, 21, 23, 13, 10, 2, 23, 25, 17, 4, 
 | 3, 7, 2, 5, 23, 9, 4, 27, 7, 8, 
 | 26, 6, 14, 30, 4, 4, 19, 22, 26, 18
 |];

h_p = [9, 10, 38, 34, 6, 7, 9, 30, 4, 17];

